* ENCODING=ISO-8859-1
NAME          CPLEX
ROWS
 N  obj1    
 G  c1      
 G  c2      
 G  c3      
 G  c4      
 G  c5      
 G  c6      
 G  c7      
 G  c8      
 G  c9      
 G  c10     
 G  c11     
 G  c12     
 G  c13     
 G  c14     
 G  c15     
 G  c16     
 G  c17     
 G  c18     
 G  c19     
 G  c20     
 G  c21     
 G  c22     
 G  c23     
 G  c24     
 G  c25     
 G  c26     
 G  c27     
 G  c28     
 G  c29     
 G  c30     
 G  c31     
 G  c32     
 G  c33     
 G  c34     
 G  c35     
 G  c36     
 G  c37     
 G  c38     
 G  c39     
 G  c40     
COLUMNS
    MARK0000  'MARKER'                 'INTORG'
    x1        obj1                            1
    x1        c7                            755
    x1        c12                           595
    x1        c30                           938
    x1        c40                           325
    x2        obj1                            1
    x2        c18                           826
    x2        c30                           950
    x2        c40                           189
    x3        obj1                            1
    x4        obj1                            1
    x4        c15                           196
    x4        c16                           528
    x4        c24                           973
    x5        obj1                            1
    x5        c4                            389
    x6        obj1                            1
    x6        c1                            876
    x6        c20                           168
    x7        obj1                            1
    x7        c19                           162
    x7        c31                           381
    x7        c37                           475
    x8        obj1                            1
    x8        c2                            706
    x8        c10                           250
    x8        c16                           471
    x8        c17                           766
    x8        c23                           246
    x8        c30                           757
    x8        c32                           936
    x8        c37                           349
    x9        obj1                            1
    x9        c3                            205
    x9        c16                           816
    x9        c17                           400
    x9        c20                           545
    x9        c31                           627
    x10       obj1                            1
    x10       c6                            460
    x10       c7                            654
    x10       c8                            811
    x10       c34                           120
    x11       obj1                            1
    x11       c6                            419
    x11       c25                           531
    x11       c29                           261
    x11       c34                           765
    x11       c37                           182
    x12       obj1                            1
    x12       c7                            242
    x12       c13                           251
    x12       c27                           445
    x13       obj1                            1
    x13       c8                            731
    x13       c11                           125
    x13       c19                           711
    x13       c29                           226
    x14       obj1                            1
    x14       c17                           208
    x14       c30                           667
    x14       c35                           423
    x15       obj1                            1
    x15       c20                           884
    x15       c21                           925
    x15       c24                           261
    x16       obj1                            1
    x16       c3                            288
    x16       c6                            607
    x16       c10                           157
    x16       c18                           655
    x16       c32                           759
    x16       c37                           624
    x16       c39                           219
    x17       obj1                            1
    x17       c8                            919
    x17       c12                           822
    x17       c13                           229
    x17       c16                           969
    x17       c27                           148
    x17       c32                           109
    x17       c36                           963
    x17       c40                           127
    x18       obj1                            1
    x18       c10                           444
    x18       c23                           457
    x18       c25                           788
    x18       c32                           413
    x18       c35                           501
    x18       c40                           898
    x19       obj1                            1
    x19       c18                           384
    x19       c28                           604
    x20       obj1                            1
    x20       c18                           994
    x20       c26                           934
    x21       obj1                            1
    x21       c17                           990
    x21       c22                           424
    x21       c37                           143
    x21       c38                           144
    x22       obj1                            1
    x22       c10                           151
    x22       c17                           462
    x22       c21                           254
    x22       c35                           947
    x22       c37                           135
    x23       obj1                            1
    x23       c18                           230
    x23       c27                           374
    x23       c32                           256
    x23       c35                           105
    x24       obj1                            1
    x24       c11                           919
    x24       c13                           875
    x24       c14                           471
    x24       c21                           756
    x24       c30                           380
    x24       c37                           242
    x25       obj1                            1
    x25       c1                            953
    x25       c6                            828
    x25       c8                            705
    x25       c16                           676
    x25       c22                           718
    x26       obj1                            1
    x26       c1                            125
    x26       c17                           935
    x26       c35                           835
    x27       obj1                            1
    x27       c9                            751
    x27       c23                           149
    x27       c40                           774
    x28       obj1                            1
    x28       c3                            430
    x28       c26                           657
    x28       c38                           127
    x29       obj1                            1
    x29       c12                           916
    x29       c18                           377
    x30       obj1                            1
    x30       c3                            945
    x30       c14                           364
    x30       c35                           814
    x31       obj1                            1
    x31       c13                           477
    x31       c17                           966
    x31       c38                           525
    x32       obj1                            1
    x32       c14                           402
    x32       c18                           473
    x32       c19                           406
    x32       c23                           572
    x32       c25                           945
    x33       obj1                            1
    x33       c34                           264
    x34       obj1                            1
    x34       c5                            549
    x34       c10                           877
    x34       c25                           674
    x34       c32                           790
    x35       obj1                            1
    x35       c1                            411
    x35       c16                           964
    x35       c17                           650
    x35       c29                           603
    x35       c30                           871
    x35       c40                           944
    x36       obj1                            1
    x36       c6                            366
    x36       c11                           420
    x36       c19                           499
    x36       c29                           190
    x36       c33                           442
    x36       c36                           924
    x37       obj1                            1
    x37       c7                            944
    x37       c11                           698
    x37       c19                           473
    x37       c31                           397
    x37       c33                           827
    x38       obj1                            1
    x38       c4                            422
    x38       c15                           443
    x38       c28                           487
    x39       obj1                            1
    x39       c5                            440
    x39       c7                            110
    x39       c27                           115
    x39       c37                           260
    x40       obj1                            1
    x40       c1                            425
    x40       c3                            551
    x40       c7                            807
    x40       c9                            227
    x40       c16                           392
    x40       c18                           904
    x40       c19                           166
    x41       obj1                            1
    x41       c6                            238
    x41       c8                            411
    x41       c26                           117
    x41       c40                           218
    x42       obj1                            1
    x42       c1                            743
    x42       c20                           723
    x43       obj1                            1
    x43       c3                            873
    x43       c4                            962
    x43       c16                           548
    x43       c33                           278
    x44       obj1                            1
    x44       c2                            361
    x44       c11                           504
    x44       c25                           656
    x44       c29                           947
    x44       c34                           890
    x45       obj1                            1
    x45       c6                            949
    x45       c18                           875
    x45       c25                           835
    x45       c32                           128
    x45       c37                           783
    x46       obj1                            1
    x46       c3                            164
    x46       c4                            727
    x46       c9                            292
    x46       c11                           342
    x46       c25                           475
    x46       c32                           860
    x47       obj1                            1
    x47       c7                            185
    x47       c9                            879
    x47       c12                           338
    x48       obj1                            1
    x48       c8                            546
    x48       c10                           737
    x48       c12                           390
    x48       c15                           757
    x48       c16                           325
    x48       c17                           547
    x49       obj1                            1
    x49       c7                            341
    x49       c23                           609
    x49       c24                           765
    x50       obj1                            1
    x50       c7                            790
    x50       c13                           248
    x50       c18                           703
    x51       obj1                            1
    x51       c5                            685
    x51       c19                           636
    x51       c20                           603
    x51       c27                           217
    x51       c33                           977
    x51       c40                           975
    x52       obj1                            1
    x52       c9                            395
    x52       c19                           883
    x52       c33                           268
    x52       c35                           443
    x52       c39                           552
    x53       obj1                            1
    x53       c6                            491
    x53       c10                           111
    x53       c21                           733
    x53       c33                           488
    x53       c36                           629
    x53       c37                           932
    x54       obj1                            1
    x54       c18                           175
    x54       c27                           532
    x54       c31                           343
    x55       obj1                            1
    x55       c1                            321
    x55       c8                            207
    x55       c32                           246
    x55       c39                           741
    x56       obj1                            1
    x56       c4                            634
    x56       c9                            583
    x56       c31                           320
    x56       c35                           566
    x56       c37                           523
    x57       obj1                            1
    x57       c26                           319
    x58       obj1                            1
    x58       c21                           435
    x58       c27                           706
    x58       c37                           433
    x58       c39                           333
    x59       obj1                            1
    x59       c1                            777
    x59       c14                           949
    x59       c19                           161
    x59       c34                           647
    x59       c38                           903
    x60       obj1                            1
    x60       c34                           889
    x61       obj1                            1
    x61       c7                            958
    x61       c11                           397
    x61       c12                           298
    x61       c21                           581
    x61       c39                           843
    x62       obj1                            1
    x62       c9                            181
    x62       c10                           121
    x62       c16                           810
    x62       c25                           234
    x62       c31                           279
    x62       c32                           687
    x62       c36                           463
    x62       c38                           200
    x63       obj1                            1
    x63       c6                            714
    x63       c12                           115
    x63       c16                           800
    x63       c33                           811
    x64       obj1                            1
    x64       c7                            492
    x64       c12                           749
    x64       c13                           869
    x64       c19                           706
    x64       c21                           878
    x64       c23                           252
    x64       c25                           316
    x64       c31                           177
    x64       c35                           400
    x65       obj1                            1
    x65       c8                            333
    x65       c21                           702
    x65       c24                           697
    x65       c29                           391
    x66       obj1                            1
    x66       c22                           104
    x66       c32                           541
    x66       c40                           862
    x67       obj1                            1
    x67       c1                            980
    x67       c36                           165
    x68       obj1                            1
    x68       c11                           702
    x68       c15                           290
    x68       c28                           656
    x68       c31                           643
    x69       obj1                            1
    x69       c5                            603
    x69       c18                           667
    x69       c25                           316
    x70       obj1                            1
    x70       c3                            360
    x70       c23                           934
    x71       obj1                            1
    x71       c11                           823
    x71       c16                           256
    x71       c35                           856
    x72       obj1                            1
    x72       c2                            877
    x72       c6                            555
    x72       c25                           156
    x72       c27                           788
    x73       obj1                            1
    x73       c2                            500
    x73       c32                           563
    x73       c33                           755
    x74       obj1                            1
    x74       c5                            231
    x74       c6                            548
    x74       c8                            221
    x74       c20                           779
    x74       c22                           998
    x74       c23                           928
    x75       obj1                            1
    x75       c9                            297
    x75       c10                           631
    x75       c13                           588
    x75       c22                           426
    x75       c23                           461
    x76       obj1                            1
    x76       c7                            982
    x76       c33                           306
    x76       c36                           418
    x77       obj1                            1
    x77       c3                            550
    x77       c4                            749
    x77       c21                           595
    x77       c28                           416
    x77       c29                           555
    x78       obj1                            1
    x78       c6                            858
    x78       c10                           965
    x78       c13                           521
    x78       c35                           506
    x78       c40                           860
    x79       obj1                            1
    x79       c14                           590
    x79       c39                           255
    x80       obj1                            1
    x80       c1                            214
    x80       c19                           236
    x80       c27                           440
    x80       c40                           180
    MARK0001  'MARKER'                 'INTEND'
RHS
    rhs       c1                           2913
    rhs       c2                           1222
    rhs       c3                           2183
    rhs       c4                           1942
    rhs       c5                           1254
    rhs       c6                           3517
    rhs       c7                           3630
    rhs       c8                           2442
    rhs       c9                           1803
    rhs       c10                          2222
    rhs       c11                          2465
    rhs       c12                          2112
    rhs       c13                          2029
    rhs       c14                          1388
    rhs       c15                           843
    rhs       c16                          3778
    rhs       c17                          2962
    rhs       c18                          3632
    rhs       c19                          2520
    rhs       c20                          1851
    rhs       c21                          2930
    rhs       c22                          1335
    rhs       c23                          2304
    rhs       c24                          1348
    rhs       c25                          2963
    rhs       c26                          1014
    rhs       c27                          1883
    rhs       c28                          1082
    rhs       c29                          1587
    rhs       c30                          2282
    rhs       c31                          1584
    rhs       c32                          3144
    rhs       c33                          2576
    rhs       c34                          1788
    rhs       c35                          3198
    rhs       c36                          1781
    rhs       c37                          2541
    rhs       c38                           950
    rhs       c39                          1472
    rhs       c40                          3176
BOUNDS
 LI bnd       x1        0
 LI bnd       x2        0
 LI bnd       x3        0
 LI bnd       x4        0
 LI bnd       x5        0
 LI bnd       x6        0
 LI bnd       x7        0
 LI bnd       x8        0
 LI bnd       x9        0
 LI bnd       x10       0
 LI bnd       x11       0
 LI bnd       x12       0
 LI bnd       x13       0
 LI bnd       x14       0
 LI bnd       x15       0
 LI bnd       x16       0
 LI bnd       x17       0
 LI bnd       x18       0
 LI bnd       x19       0
 LI bnd       x20       0
 LI bnd       x21       0
 LI bnd       x22       0
 LI bnd       x23       0
 LI bnd       x24       0
 LI bnd       x25       0
 LI bnd       x26       0
 LI bnd       x27       0
 LI bnd       x28       0
 LI bnd       x29       0
 LI bnd       x30       0
 LI bnd       x31       0
 LI bnd       x32       0
 LI bnd       x33       0
 LI bnd       x34       0
 LI bnd       x35       0
 LI bnd       x36       0
 LI bnd       x37       0
 LI bnd       x38       0
 LI bnd       x39       0
 LI bnd       x40       0
 LI bnd       x41       0
 LI bnd       x42       0
 LI bnd       x43       0
 LI bnd       x44       0
 LI bnd       x45       0
 LI bnd       x46       0
 LI bnd       x47       0
 LI bnd       x48       0
 LI bnd       x49       0
 LI bnd       x50       0
 LI bnd       x51       0
 LI bnd       x52       0
 LI bnd       x53       0
 LI bnd       x54       0
 LI bnd       x55       0
 LI bnd       x56       0
 LI bnd       x57       0
 LI bnd       x58       0
 LI bnd       x59       0
 LI bnd       x60       0
 LI bnd       x61       0
 LI bnd       x62       0
 LI bnd       x63       0
 LI bnd       x64       0
 LI bnd       x65       0
 LI bnd       x66       0
 LI bnd       x67       0
 LI bnd       x68       0
 LI bnd       x69       0
 LI bnd       x70       0
 LI bnd       x71       0
 LI bnd       x72       0
 LI bnd       x73       0
 LI bnd       x74       0
 LI bnd       x75       0
 LI bnd       x76       0
 LI bnd       x77       0
 LI bnd       x78       0
 LI bnd       x79       0
 LI bnd       x80       0
ENDATA
